num_variables= 13;
max_domain = 49;
domains = [49,49,49,49,49,49,49,49,49,49,49,49,49];
top = 6666;
num_constraints1= 13;
max_constraints1 = 1274;
max_costs1 = 6666;
num_constraints2= 78;
max_constraints2 = 561834;
max_costs2 = 6666;
func1x = [12,9,1,11,6,4,3,13,10,7,5,8,2];
num_tuples1 = [49,49,49,49,49,49,49,49,49,49,49,49,49];
cum_tuples1 = [0,49,98,147,196,245,294,343,392,441,490,539,588];
costs1 = costs1 = costs1 = costs1 = [97, 0, 96, 1, 99, 2, 98, 3, 132, 4, 98, 5, 96, 6, 96, 7, 96, 8, 107, 9, 155, 10,... ]; // array too long to display, dimensions: (30)
 // array too long to display, dimensions: (1274)

func2x = func2x = [2,2,1,2,11,4,3,2,9,2,4,3,6,8,8,4,7,1,1,3,7,5,1,5,6,5,5,1,1,1,10,6,6,5,10,6,9,3,2... ]; // array too long to display, dimensions: (78)

func2y = func2y = [11,12,7,7,13,12,6,9,10,5,9,11,11,10,11,6,13,6,11,12,12,8,5,13,12,10,11,2,12,8,12... ]; // array too long to display, dimensions: (78)

num_tuples2 = num_tuples2 = [2401,2401,2401,2401,2401,2401,2401,2401,2401,2401,2401,2401,2401,2401,2401,2401,... ]; // array too long to display, dimensions: (78)

cum_tuples2 = cum_tuples2 = [0,2401,4802,7203,9604,12005,14406,16807,19208,21609,24010,26411,28812,31213,3361... ]; // array too long to display, dimensions: (78)

costs2 = costs2 = costs2 = costs2 = [52, 26, 19, 6666, 27, 2, 53, 28, 16, 53, 18, 41, 53, 45, 6, 6666, 35, 17, 53, 13... ]; // array too long to display, dimensions: (30)
 // array too long to display, dimensions: (561834)

